benchmark_str_length/p1_10_11-3.dzn
Alphabet = {A,C,G,T};
ns = 10;
nc = 11;
sl = 11;
neighbours = [| I(A),I(C),I(A),I(A),I(A),I(C),I(C),I(A),I(A),I(A),I(A) | I(C),I(C),I(C),I(A),I(A),I(A),I(A),I(A),I(C),I(C),I(A) | I(C),I(A),I(A),I(C),I(A),I(C),I(C),I(A),I(A),I(A),I(A) | I(A),I(A),I(A),I(A),I(A),I(A),I(A),I(A),I(C),I(A),I(C) | I(C),I(A),I(A),I(A),I(A),I(A),I(C),I(C),I(A),I(A),I(A) | I(A),I(A),I(A),I(C),I(A),I(A),I(C),I(A),I(A),I(G),I(A) | I(A),I(C),I(C),I(G),I(A),I(C),I(A),I(A),I(A),I(G),I(A) | I(A),I(A),I(G),I(A),I(A),I(A),I(C),I(A),I(A),I(A),I(A) | I(A),I(A),I(A),I(C),I(A),I(A),I(A),I(C),I(A),I(A),I(A) | I(G),I(A),I(A),I(A),I(C),I(A),I(C),I(G),I(A),I(C),I(A) |];
