benchmark_str_length/p1_10_11-3.txt
{
	"num_strings": 10,
	"alphabet": "ACGT",
	"strings": [
		"ACAAACCAAAA",
		"CCCAAAAACCA",
		"CAACACCAAAA",
		"AAAAAAAACAC",
		"CAAAAACCAAA",
		"AAACAACAAGA",
		"ACCGACAAAGA",
		"AAGAAACAAAA",
		"AAACAAACAAA",
		"GAAACACGACA"
	],
	"str_length":[11,11,11,11,11,11,11,11,11,11]
}